Set parameter TokenServer to value "opt-license.discovery.wisc.edu"
Gurobi Optimizer version 9.5.1 build v9.5.1rc2 (linux64)
Thread count: 40 physical cores, 80 logical processors, using up to 32 threads
Optimize a model with 1681 rows, 1600 columns and 6360 nonzeros
Model fingerprint: 0x1e81ebf2
Coefficient statistics:
  Matrix range     [1e+00, 9e+02]
  Objective range  [1e+00, 8e+00]
  Bounds range     [1e+00, 1e+00]
  RHS range        [1e+00, 6e+00]
Presolve removed 40 rows and 0 columns
Presolve time: 0.00s
Presolved: 1641 rows, 1600 columns, 6360 nonzeros

Iteration    Objective       Primal Inf.    Dual Inf.      Time
       0    0.0000000e+00   1.058000e+03   0.000000e+00      0s
     389    3.9683507e+01   0.000000e+00   0.000000e+00      0s

Solved in 389 iterations and 0.02 seconds (0.01 work units)
Optimal objective  3.968350666e+01
Set parameter LazyConstraints to value 1
Set parameter TimeLimit to value 600
Gurobi Optimizer version 9.5.1 build v9.5.1rc2 (linux64)
Thread count: 40 physical cores, 80 logical processors, using up to 32 threads
Optimize a model with 1681 rows, 1600 columns and 6360 nonzeros
Model fingerprint: 0x71967b8f
Variable types: 0 continuous, 1600 integer (1600 binary)
Coefficient statistics:
  Matrix range     [1e+00, 9e+02]
  Objective range  [1e+00, 8e+00]
  Bounds range     [1e+00, 1e+00]
  RHS range        [1e+00, 6e+00]
Presolve removed 40 rows and 0 columns
Presolve time: 0.02s
Presolved: 1641 rows, 1600 columns, 6360 nonzeros
Variable types: 0 continuous, 1600 integer (1600 binary)

Root relaxation: objective 3.968771e+01, 443 iterations, 0.02 seconds (0.01 work units)

    Nodes    |    Current Node    |     Objective Bounds      |     Work
 Expl Unexpl |  Obj  Depth IntInf | Incumbent    BestBd   Gap | It/Node Time

     0     0   39.68771    0   45          -   39.68771      -     -    0s
H    0     0                      44.2645531   39.68771  10.3%     -    0s
     0     0   39.81367    0   27   44.26455   39.81367  10.1%     -    0s
     0     0   39.81728    0   69   44.26455   39.81728  10.0%     -    0s
     0     0   40.11295    0   40   44.26455   40.11295  9.38%     -    0s
     0     0   40.11295    0   44   44.26455   40.11295  9.38%     -    0s
     0     0   40.30174    0  105   44.26455   40.30174  8.95%     -    0s
     0     0   40.39454    0  112   44.26455   40.39454  8.74%     -    0s
     0     0   40.50846    0  131   44.26455   40.50846  8.49%     -    0s
H    0     0                      43.2645531   40.50846  6.37%     -    1s
     0     0   40.50846    0  131   43.26455   40.50846  6.37%     -    1s
     0     0   40.50846    0  131   43.26455   40.50846  6.37%     -    1s
     0     0   40.50846    0   45   43.26455   40.50846  6.37%     -    1s
     0     0   40.50846    0   59   43.26455   40.50846  6.37%     -    1s
     0     0   40.50846    0  130   43.26455   40.50846  6.37%     -    1s
     0     0   40.56883    0  151   43.26455   40.56883  6.23%     -    1s
     0     0   40.57788    0  155   43.26455   40.57788  6.21%     -    1s
     0     0   40.59393    0  158   43.26455   40.59393  6.17%     -    1s
     0     0   40.60155    0  155   43.26455   40.60155  6.16%     -    1s
     0     0   40.60155    0  155   43.26455   40.60155  6.16%     -    1s
     0     2   40.60155    0  155   43.26455   40.60155  6.16%     -    1s
H 1287   657                      43.0929802   40.76059  5.41%  32.6    2s
H 2095   743                      43.0284851   40.98435  4.75%  30.6    2s
H 2607   835                      42.6142716   41.21244  3.29%  30.5    3s
* 4035   377              15      42.3782036   41.95819  0.99%  30.1    3s

Cutting planes:
  Gomory: 2
  Lift-and-project: 9
  Cover: 1
  MIR: 14
  StrongCG: 12
  GUB cover: 11
  Inf proof: 1
  Lazy constraints: 12

Explored 4633 nodes (130312 simplex iterations) in 3.63 seconds (1.00 work units)
Thread count was 32 (of 80 available processors)

Solution count 6: 42.3782 42.6143 43.0285 ... 44.2646

Optimal solution found (tolerance 1.00e-04)
Best objective 4.237820360123e+01, best bound 4.237820360123e+01, gap 0.0000%

User-callback calls 10200, time in user-callback 1.57 sec
cuts :  0
